p wcnf 185 217 218 
1 -87 -72 0 
1 -80 6 0 
1 96 24 0 
1 -48 39 0 
1 23 -16 0 
1 -124 -164 0 
1 -83 76 0 
1 -137 176 0 
1 -91 -161 0 
1 -41 5 0 
1 142 155 0 
1 152 -166 0 
1 25 38 0 
1 170 153 0 
1 -99 -177 0 
1 -182 18 0 
1 -178 -180 0 
1 27 166 0 
1 -13 -56 0 
1 185 37 0 
1 -177 83 0 
1 -142 22 0 
1 110 -149 0 
1 -133 -137 0 
1 -10 88 0 
1 -29 -41 0 
1 40 -53 0 
1 -121 -99 0 
1 25 -116 0 
1 32 56 0 
1 160 -90 0 
1 106 -119 0 
1 55 86 0 
1 142 -157 0 
1 126 -146 0 
1 32 146 0 
1 -61 157 0 
1 -87 -67 0 
1 117 68 0 
1 -10 -49 0 
1 175 -168 0 
1 89 35 0 
1 134 178 0 
1 -106 -85 0 
1 -77 -42 0 
1 -13 -164 0 
1 173 -177 0 
1 -25 -5 0 
1 -155 174 0 
1 -69 -123 0 
1 20 150 0 
1 -61 -90 0 
1 120 -49 0 
1 -92 -68 0 
1 77 63 0 
1 20 -122 0 
1 126 -33 0 
1 -28 94 0 
1 116 47 0 
1 3 -169 0 
1 100 135 0 
1 135 160 0 
1 -31 12 0 
1 -181 -136 0 
1 -128 107 0 
1 -141 -39 0 
1 20 62 0 
1 27 32 0 
1 -23 -8 0 
1 138 -147 0 
1 -72 -1 0 
1 -6 134 0 
1 166 49 0 
1 125 -92 0 
1 43 44 0 
1 169 42 0 
1 -59 28 0 
1 56 -66 0 
1 -52 -136 0 
1 13 157 0 
1 7 137 0 
1 107 -14 0 
1 165 44 0 
1 -67 -39 0 
1 47 128 0 
1 -80 57 0 
1 48 -16 0 
1 64 -31 0 
1 147 72 0 
1 58 28 0 
1 177 -130 0 
1 -47 -142 0 
1 72 71 0 
1 101 133 0 
1 -82 110 0 
1 -88 -47 0 
1 98 44 0 
1 -65 -131 0 
1 97 -120 0 
1 -26 -154 0 
1 40 30 0 
1 -145 -130 0 
1 -72 -113 0 
1 -7 46 0 
1 -18 132 0 
1 -168 127 0 
1 -29 139 0 
1 159 98 0 
1 -98 101 0 
1 -68 -135 0 
1 108 140 0 
1 31 136 0 
1 90 14 0 
1 -29 -32 0 
1 -184 -172 0 
1 -17 -99 0 
1 12 182 0 
1 -104 -110 0 
1 -26 -145 0 
1 -146 67 0 
1 -106 -120 0 
1 -47 34 0 
1 -71 87 0 
1 -55 103 0 
1 64 4 0 
1 -122 -143 0 
1 118 85 0 
1 91 -152 0 
1 -85 112 0 
1 -20 151 0 
1 9 137 0 
1 -105 185 0 
1 88 28 0 
1 -50 -87 0 
1 81 -55 0 
1 -72 167 0 
1 112 159 0 
1 -122 -127 0 
1 -51 13 0 
1 -179 -178 0 
1 -75 36 0 
1 72 -40 0 
1 38 134 0 
1 -183 -129 0 
1 6 173 0 
1 135 -163 0 
1 105 96 0 
1 -45 -68 0 
1 16 -74 0 
1 163 3 0 
1 -173 -95 0 
1 -62 119 0 
1 100 133 0 
1 -125 90 0 
1 181 176 0 
1 60 96 0 
1 105 -87 0 
1 100 85 0 
1 -124 -40 0 
1 31 -150 0 
1 -162 119 0 
1 164 144 0 
1 170 -16 0 
1 102 61 0 
1 129 -96 0 
1 -99 -21 0 
1 -61 118 0 
1 -181 8 0 
1 51 -144 0 
1 177 183 0 
1 22 51 0 
1 112 -155 0 
1 90 -110 0 
1 -169 96 0 
1 114 140 0 
1 -146 168 0 
1 49 68 0 
1 3 -110 0 
1 -15 -103 0 
1 -175 158 0 
1 66 88 0 
1 102 -172 0 
1 -149 127 0 
1 -177 -136 0 
1 -156 -165 0 
1 115 41 0 
1 -22 -183 0 
1 120 140 0 
1 10 70 0 
1 -129 156 0 
1 -47 -182 0 
1 181 57 0 
1 184 159 0 
1 -84 59 0 
1 -45 -41 0 
1 86 85 0 
1 -20 -27 0 
1 177 110 0 
1 -183 39 0 
1 -181 -16 0 
1 -31 -149 0 
1 52 -182 0 
1 182 78 0 
1 71 -180 0 
1 66 8 0 
1 -66 -43 0 
1 -180 34 0 
1 55 -114 0 
1 -17 32 0 
1 149 -7 0 
1 -114 73 0 
1 -91 90 0 
1 -74 -41 0 
1 -18 -156 0 
1 134 159 0 
1 -108 28 0 
1 26 -56 0 
